44 424
4 6 7 9 10 11 12 13 15 16 19 23 26 27 29 31 32 35 37 38 39 40 42 43
2 3 5 7 9 12 16 18 21 22 23 24 27 29 31 34 35 38 39 41
1 3 4 6 7 8 9 15 16 21 24 26 27 33 38 39 41
1 2 4 9 10 14 18 19 21 22 27 29 30 31 32 33 34 36 40 42
0 2 3 9 10 11 14 16 18 27 28 30 35 36 37 38 42
1 9 10 11 13 19 22 24 27 30 32 35 37 39 41 42 43
0 2 7 8 15 16 17 18 23 24 26 28 29 31 33 35 36 37 42 43
0 1 2 6 13 18 20 22 29 30 33 36 38 39 43
2 6 9 10 11 12 15 16 17 19 27 29 30 33 36 37 38 39 41 43
0 1 2 3 4 5 8 11 12 13 15 16 18 20 25 30 32 33 35 37 39 41
0 3 4 5 8 14 17 18 22 24 34 35 36 37 38 40 43
0 4 5 8 9 12 15 19 21 24 25 28 30 32 33 34 35
0 1 8 9 11 13 14 15 17 18 20 21 22 24 26 32 33 35 36 41
0 5 7 9 12 15 18 19 21 22 24 26 31 32 33 35 38 39 41
3 4 10 12 17 18 20 22 25 27 28 29 30 31 33 37 38 39 42
0 2 6 8 9 11 12 13 17 18 19 21 26 28 30 33 35 37 38 43
0 1 2 4 6 8 9 17 21 27 30 31 34 36 38 41
6 8 10 12 14 15 16 18 19 20 21 22 25 26 28 32 34 36 40
1 3 4 6 7 9 10 12 13 14 15 17 22 23 24 25 26 28 29 33 35 36 38 41 43
0 3 5 8 11 13 15 17 24 25 26 28 31 32 34 37 38 41 43
7 9 12 14 17 23 27 33 34 35 36 38 41 43
1 2 3 11 12 13 15 16 17 22 26 27 28 29 35 36 37 38 43
1 3 5 7 10 12 13 14 17 18 21 23 27 28 30 31 34 35 36 37 38 40 41 42
0 1 6 18 20 22 25 26 28 30 35 43
1 2 5 6 10 11 12 13 18 19 26 27 28 29 31 37 39
9 11 14 17 18 19 23 28 29 31 32 33 34 38 39 42 43
0 2 6 12 13 15 17 18 19 21 23 24 28 29 30 35 37 38 41 42
0 1 2 3 4 5 8 14 16 20 21 22 24 28 30 32 34 35 39 41
4 6 11 14 15 17 18 19 21 22 23 24 25 26 27 32 34 36 37 42 43
0 1 3 6 7 8 14 18 21 24 25 26 31 32 33 34 37 41
3 4 5 7 8 9 11 14 15 16 22 23 26 27 32 33 36 37 38 40 41 42
0 1 3 6 13 14 16 19 22 24 25 29 32 33 34 35 37
0 3 5 9 11 12 13 17 19 25 27 28 29 30 31 33 35 36 39 41
2 3 6 7 8 9 11 12 13 14 15 18 20 25 29 30 31 32 34 35 37 40 41 42
1 3 10 11 16 17 19 20 22 25 27 28 29 31 33 37 40 43
0 1 4 5 6 9 10 11 12 13 15 18 20 21 22 23 26 27 31 32 33 36 37 38 39 43
3 4 6 7 8 10 12 16 17 18 20 21 22 28 30 32 35 37 39 40 41 42 43
0 4 5 6 8 9 10 14 15 19 21 22 24 26 28 29 30 31 33 34 35 36 38 41 42 43
0 1 2 4 7 8 10 13 14 15 16 18 19 20 21 22 25 26 30 35 37 40
0 1 2 5 7 8 9 13 14 24 25 27 32 35 36 42 43
0 3 10 17 22 30 33 34 36 38 41 43
1 2 5 8 9 12 13 16 18 19 20 22 26 27 29 30 32 33 36 37 40
0 3 4 5 6 14 22 25 26 28 30 33 36 37 39
0 5 6 7 8 10 15 18 19 20 21 23 25 28 34 35 36 37 39 40
